32	0

0	1	2
10	1	3
1	1	4
9	1	5
9	1	6
9	2	7	8
4	1	9
2	1	9
4	2	10	11
10	1	12
1	1	12
4	1	13
2	3	14	15	16
9	1	17
4	1	17
8	1	17
9	1	18
7	1	19
2	1	20
4	1	21
1	1	22
1	1	23
3	1	24
10	2	25	26
2	1	27
7	1	28
5	1	28
3	1	29
7	1	30
10	1	31
2	1	32
0	0
